200
1000
495
494
493
493
493
492
489
482
482
478
478
475
473
473
472
471
469
463
461
461
459
455
454
452
448
444
444
442
440
439
439
436
434
433
432
431
429
425
423
423
422
422
420
420
417
416
412
411
411
410
410
409
408
403
401
401
400
399
397
394
394
393
392
392
390
389
387
386
385
384
384
382
380
380
376
375
374
372
372
370
370
368
366
357
353
353
353
350
349
346
345
345
345
345
342
342
338
332
331
325
324
324
322
321
317
314
314
312
312
311
310
308
307
307
307
306
301
299
299
296
295
294
293
290
288
287
287
286
285
283
283
280
279
278
275
274
272
271
271
270
269
268
266
266
265
264
263
257
256
248
247
242
240
236
233
233
233
229
227
222
219
219
217
217
212
212
209
208
207
206
205
205
205
205
205
203
203
201
199
198
198
197
192
192
192
191
189
188
184
184
183
182
182
179
179
178
176
175
168
167
